n = 42;
k = 2;
roles = [
{d, m},
{f, g},
{f, m},
{f, g},
{m, g},
{m, d},
{g, m},
{g, d},
{g, m},
{g, m},
{d, g},
{g, f},
{m, g},
{g, m},
{d, g},
{m, d},
{m, g},
{f, m},
{m, g},
{g, f},
{m, d},
{m, g},
{f, g},
{m, g},
{d, g},
{g, d},
{g, d},
{m, f},
{d, f},
{m, f},
{m, f},
{m, g},
{m, d},
{m, d},
{g, f},
{f, g},
{f, m},
{m, f},
{f, d},
{m, d},
{g, m},
{f, d}
];
num_pairs = 5;
player1 = [34, 40, 42, 23, 2];
player2 = [18, 35, 17, 1, 22];
